39 40 81 78 29 21 
63 90 62 52 18 85 93 91 100 
45 43 41 74 26 
1 79 9 10 32 
15 6 84 61 17 60 89 
19 83 99 57 72 80 
28 94 92 42 22 73 55 96 
11 30 71 66 20 70 50 
16 5 38 98 4 77 
65 64 68 58 
14 67 56 97 13 
33 24 53 7 47 46 
12 69 31 88 8 35 
2 75 76 86 82 
34 36 49 48 95 
27 59 37 44 51 3 54 
23 87 25 

